c User generated cnf file
p cnf 12 41
3 -3 8 0 
11 10 -7 0 
6 12 -10 0 
7 -4 9 0 
8 -7 8 0 
7 -7 6 0 
10 -10 5 0 
11 -3 8 0 
2 -11 6 0 
7 11 -12 0 
7 -11 12 0 
1 -1 5 0 
10 -2 11 0 
4 -9 7 0 
5 -11 10 0 
7 -2 6 0 
12 3 -6 0 
2 -8 7 0 
3 -10 2 0 
1 -11 2 0 
2 -5 2 0 
11 3 -3 0 
11 -9 2 0 
7 -11 7 0 
6 1 -11 0 
2 6 -4 0 
2 -3 2 0 
11 -2 6 0 
2 -9 5 0 
1 -6 10 0 
7 -2 7 0 
8 -5 5 0 
12 6 -5 0 
8 4 -10 0 
4 -3 2 0 
9 -7 2 0 
11 4 -6 0 
5 7 -10 0 
3 3 -3 0 
5 11 -10 0 
10 12 -11 0 
